NAME : netgen22-5-5
COMMENT : Generated using the function generateClusteredNetwork from the R-package netgen (Bossek,2015) - Number of clusters: 5
TYPE : TSP
DIMENSION : 22
EDGE_WEIGHT_TYPE : EUC_2D
NODE_COORD_SECTION
1 6.4586794994 39.1348955828
2 5.6471608625 37.8200205466
3 0.089258776 39.8008310187
4 4.944124199 30.7958944055
5 46.2702415613 83.7019875583
6 54.7365197733 81.2731361456
7 41.1446278038 77.1629341824
8 39.6523701829 94.7522922154
9 50.9177019147 77.6349024212
10 49.3899628973 85.8138284298
11 68.142153284 66.758924055
12 65.672123142 56.4451571142
13 67.8890318612 51.8148514569
14 53.7990101979 63.3851403051
15 91.7346590412 5.7004446646
16 87.6265185489 15.6845399125
17 92.0101319205 8.0551899067
18 94.011583633 19.5063322216
19 27.417881614 61.4406574929
20 26.2767676426 61.3878819044
21 25.9734887995 59.7812216271
22 22.2074059293 56.5701448582
EOF
